100 3 1 15 1
1 3 1 5 2 5 3 5
1 3 1 9 2 9 3 9
1 3 1 6 2 6 3 6
1 3 1 10 2 10 3 10
1 3 1 10 2 10 3 10
1 3 1 10 2 10 3 10
1 3 1 10 2 10 3 10
1 3 1 8 2 8 3 8
1 3 1 8 2 8 3 8
1 3 1 7 2 7 3 7
1 3 1 10 2 10 3 10
1 3 1 10 2 10 3 10
1 3 1 10 2 10 3 10
1 3 1 9 2 9 3 9
1 3 1 10 2 10 3 10
1 3 1 7 2 7 3 7
1 3 1 9 2 9 3 9
1 3 1 8 2 8 3 8
1 3 1 10 2 10 3 10
1 3 1 7 2 7 3 7
1 3 1 6 2 6 3 6
1 3 1 5 2 5 3 5
1 3 1 7 2 7 3 7
1 3 1 10 2 10 3 10
1 3 1 7 2 7 3 7
1 3 1 9 2 9 3 9
1 3 1 8 2 8 3 8
1 3 1 9 2 9 3 9
1 3 1 5 2 5 3 5
1 3 1 10 2 10 3 10
1 3 1 10 2 10 3 10
1 3 1 10 2 10 3 10
1 3 1 10 2 10 3 10
1 3 1 10 2 10 3 10
1 3 1 7 2 7 3 7
1 3 1 7 2 7 3 7
1 3 1 8 2 8 3 8
1 3 1 10 2 10 3 10
1 3 1 9 2 9 3 9
1 3 1 8 2 8 3 8
1 3 1 7 2 7 3 7
1 3 1 6 2 6 3 6
1 3 1 10 2 10 3 10
1 3 1 7 2 7 3 7
1 3 1 9 2 9 3 9
1 3 1 8 2 8 3 8
1 3 1 9 2 9 3 9
1 3 1 9 2 9 3 9
1 3 1 9 2 9 3 9
1 3 1 5 2 5 3 5
1 3 1 6 2 6 3 6
1 3 1 8 2 8 3 8
1 3 1 7 2 7 3 7
1 3 1 5 2 5 3 5
1 3 1 8 2 8 3 8
1 3 1 9 2 9 3 9
1 3 1 9 2 9 3 9
1 3 1 10 2 10 3 10
1 3 1 8 2 8 3 8
1 3 1 6 2 6 3 6
1 3 1 10 2 10 3 10
1 3 1 9 2 9 3 9
1 3 1 6 2 6 3 6
1 3 1 5 2 5 3 5
1 3 1 5 2 5 3 5
1 3 1 8 2 8 3 8
1 3 1 6 2 6 3 6
1 3 1 7 2 7 3 7
1 3 1 9 2 9 3 9
1 3 1 5 2 5 3 5
1 3 1 7 2 7 3 7
1 3 1 9 2 9 3 9
1 3 1 10 2 10 3 10
1 3 1 10 2 10 3 10
1 3 1 7 2 7 3 7
1 3 1 5 2 5 3 5
1 3 1 10 2 10 3 10
1 3 1 5 2 5 3 5
1 3 1 6 2 6 3 6
1 3 1 9 2 9 3 9
1 3 1 6 2 6 3 6
1 3 1 8 2 8 3 8
1 3 1 8 2 8 3 8
1 3 1 6 2 6 3 6
1 3 1 8 2 8 3 8
1 3 1 5 2 5 3 5
1 3 1 6 2 6 3 6
1 3 1 6 2 6 3 6
1 3 1 8 2 8 3 8
1 3 1 6 2 6 3 6
1 3 1 8 2 8 3 8
1 3 1 9 2 9 3 9
1 3 1 5 2 5 3 5
1 3 1 5 2 5 3 5
1 3 1 7 2 7 3 7
1 3 1 6 2 6 3 6
1 3 1 8 2 8 3 8
1 3 1 5 2 5 3 5
1 3 1 8 2 8 3 8
1 3 1 8 2 8 3 8